PARAMETER_FILE = even/LKH_uncomplete_graph/x10/de/par/random86.par
PROBLEM_FILE = even/LKH_uncomplete_graph/x10/de/mat/random86.tsp
Successes/Runs = 0/10
Cost.min = 729, Cost.avg = 729.00, Cost.max = 729
Gap.min = 0.0000%, Gap.avg = 0.0000%, Gap.max = 0.0000%
Trials.min = 1000, Trials.avg = 1000.0, Trials.max = 1000
Time.min = 0.43 sec., Time.avg = 0.50 sec., Time.max = 0.73 sec.
Time.total = 5.05 sec.
请按任意键继续. . . 
